! Solving for graph /home/truongxuanhieu/CPLEX-CP-for-MinSpanLabeling/benchmarks/cabp/S-sherman4.mtx.rnd
! Target value is set to 387
! Lower bound is set to 388
! Upper bound is set to 819
! Time limit is set to 1800
! Vertices mode is set to Has hole
! Target value mode is set to Cyclic Antibandwidth
 ! --------------------------------------------------- CP Optimizer 22.2.0.0 --
 ! Minimization problem - 547 variables, 1344 constraints, 1 phase
 ! TimeLimit            = 1800
 ! LogVerbosity         = Terse
 ! Initial process time : 0.04s (0.04s extraction + 0.00s propagation)
 !  . Log search space  : 5283.5 (before), 5283.5 (after)
 !  . Memory usage      : 2.8 MB (before), 2.8 MB (after)
 ! Using parallel search with 8 workers.
 ! ----------------------------------------------------------------------------
 !          Best Branches  Non-fixed    W       Branch decision
                        0        547                 -
 + New bound is 774
                       48        546    1   F   388 != _int165
 + New bound is 775
 *           775      594  0.14s        1      (gap is 0.00%)
 ! ----------------------------------------------------------------------------
 ! Search completed, 1 solution found.
 ! Best objective         : 775 (optimal - effective tol. is 0)
 ! Best bound             : 775
 ! ----------------------------------------------------------------------------
 ! Number of branches     : 6380
 ! Number of fails        : 801
 ! Total memory usage     : 52.7 MB (51.3 MB CP Optimizer + 1.3 MB Concert)
 ! Time spent in solve    : 0.15s (0.11s engine + 0.04s extraction)
 ! Search speed (br. / s) : 58000.0
 ! ----------------------------------------------------------------------------
! --------------------------------------------------------
! Best span = 775
! Labeling: 388 388 1 1 1 388 388 388 388 388 1 388 388 1 388 388 388 1 1 1 388 1 1 388 1 1 388 388 388 1 1 1 1 1 388 388 1 388 1 388 388 1 388 1 1 1 1 1 1 1 1 1 388 388 1 388 388 1 1 1 1 1 1 1 1 388 1 388 1 388 1 388 388 388 388 388 388 1 388 388 1 1 388 1 388 388 1 388 388 388 388 388 1 1 388 1 388 1 1 1 1 388 388 1 1 1 1 388 1 388 1 388 388 388 388 1 1 1 1 1 388 1 1 1 1 1 1 388 1 1 388 1 1 1 1 388 388 1 388 1 1 1 388 388 388 388 388 388 1 388 388 1 388 388 1 1 1 1 388 388 388 388 1 388 1 1 388 1 388 388 388 388 1 1 388 1 1 1 388 388 388 388 388 388 388 1 1 1 1 388 388 1 388 1 1 1 388 388 388 1 388 388 388 1 1 1 388 388 1 388 388 1 388 1 388 388 1 388 1 1 1 1 388 388 388 1 388 1 1 388 1 388 388 1 1 1 1 388 388 388 1 1 388 388 1 1 1 1 388 388 388 388 1 1 1 1 388 1 1 388 388 1 388 388 775 1 1 1 1 1 388 1 1 388 388 388 1 388 1 1 1 388 1 388 1 1 388 1 1 388 388 1 1 1 1 1 388 388 1 1 388 388 388 388 388 1 388 388 388 388 1 1 388 1 388 1 388 388 1 388 1 1 388 388 1 388 388 1 1 388 388 388 1 1 1 1 1 1 388 388 1 1 388 1 1 388 1 388 1 388 388 388 1 388 1 388 388 388 388 388 388 388 388 1 388 1 1 1 1 388 1 388 388 388 388 1 388 388 1 388 388 388 1 1 1 388 1 388 388 388 388 1 388 1 1 1 388 388 388 1 1 1 388 388 1 388 1 388 388 1 388 1 1 1 1 388 388 388 1 388 388 388 388 1 1 1 388 388 388 388 1 388 388 1 1 1 1 388 1 1 388 388 1 388 388 388 1 388 388 1 388 1 1 1 1 388 388 388 388 388 1 1 388 388 1 388 1 1 1 1 388 1 1 388 388 1 388 1 388 1 1 388 388 1 388 388 388 388 1 388 388 388 388 1 388 1 388 1 388 388 1 388 1 1 1 1 1 1 388 1 1 1 1 1 1 1 388 1 388 1 388 388 388 1 388 388 1 1 1 388 1 388 388 1 1 388 388 388 1 388 388 388 388 388 1 1 
! -------------------------------------------------------- 
